qe/outputs/qe/qe_queries_cbrdelay/T=5,eliminate=[I_0,I_1,I_2,I_3,I_4,L_3,L_4,ideal].smt2
; benchmark generated from python API
(set-info :status unknown)
(declare-fun L_0 () Real)
(declare-fun C () Real)
(declare-fun B () Real)
(declare-fun S_2 () Real)
(declare-fun L_1 () Real)
(declare-fun A_2 () Real)
(declare-fun L_2 () Real)
(declare-fun S_3 () Real)
(declare-fun A_3 () Real)
(declare-fun A_4 () Real)
(declare-fun S_4 () Real)
(declare-fun S_1 () Real)
(declare-fun A_1 () Real)
(declare-fun S_0 () Real)
(declare-fun A_0 () Real)
(assert
 (let (($x34 (>= L_0 0.0)))
 (let (($x522 (>= C 5.0)))
 (let (($x722 (>= B 5.0)))
 (let (($x868 (<= (+ A_2 (* (- 1.0) L_1) (* (- 1.0) S_2)) B)))
 (let (($x1345 (not (= L_1 L_2))))
 (let ((?x793 (+ S_3 C)))
 (let (($x1396 (<= (+ A_4 (* (- 1.0) A_3) B) C)))
 (let (($x1879 (= S_4 (ite $x1396 (+ A_4 (* (- 1.0) A_3) S_3 B) ?x793))))
 (let (($x814 (<= (+ A_3 (* (- 1.0) L_2) (* (- 1.0) S_3)) B)))
 (let (($x2065 (or $x1879 (not (= S_4 (ite (<= (+ S_4 B) ?x793) (+ S_4 B) ?x793))))))
 (let (($x61 (= L_2 L_1)))
 (let (($x873 (<= (+ A_1 (* (- 1.0) L_0) (* (- 1.0) S_1)) B)))
 (let (($x1172 (not (= L_0 L_1))))
 (let ((?x506 (* (- 1.0) L_2)))
 (let ((?x877 (+ A_4 ?x506)))
 (let (($x406 (= S_4 (ite (<= ?x877 ?x793) ?x877 ?x793))))
 (let (($x2235 (or $x406 (<= (+ A_4 (* (- 1.0) A_3) S_3 (* (- 1.0) S_4)) 0.0))))
 (let (($x51 (= L_1 L_0)))
 (let ((?x798 (+ S_0 C)))
 (let ((?x519 (* (- 1.0) L_1)))
 (let ((?x520 (+ A_1 ?x519)))
 (let ((?x779 (+ S_2 C)))
 (let ((?x817 (+ A_3 ?x506)))
 (let ((?x617 (+ S_1 C)))
 (let ((?x507 (+ A_2 ?x506)))
 (let (($x119 (>= A_1 A_0)))
 (let (($x120 (>= A_2 A_1)))
 (let (($x121 (>= A_3 A_2)))
 (let (($x122 (>= A_4 A_3)))
 (and $x122 $x121 $x120 $x119 (<= S_0 (+ A_0 (* (- 1.0) L_0))) (or $x51 (not $x873)) (= S_2 (ite (<= ?x507 ?x617) ?x507 ?x617)) (= S_3 (ite (<= ?x817 ?x779) ?x817 ?x779)) (= S_1 (ite (<= ?x520 ?x798) ?x520 ?x798)) (or $x51 (= L_1 (+ A_1 (* (- 1.0) S_1) (* (- 1.0) B)))) (or $x406 (not $x814)) $x2235 (or $x406 $x1396) (or $x61 (not $x868)) (or $x1172 $x873) (or $x61 (= L_2 (+ A_2 (* (- 1.0) S_2) (* (- 1.0) B)))) $x2065 (or $x814 $x1879) (or $x1345 $x868) $x722 $x522 $x34)))))))))))))))))))))))))))))))
(check-sat)
